20190630 108055.17 107983.21
20171231 108100.00 108000.00
20170630 108055.17 107980.13
20161231 108055.17 107980.84
20160630 108055.17 107980.84
20160311 108055.17 107980.84
20150630 108055.17 99395.35
